* ENCODING=ISO-8859-1
NAME          CPLEX
ROWS
 N  obj1    
 G  c1      
 G  c2      
 G  c3      
 G  c4      
 G  c5      
 G  c6      
 G  c7      
 G  c8      
 G  c9      
 G  c10     
 G  c11     
 G  c12     
 G  c13     
 G  c14     
 G  c15     
 G  c16     
 G  c17     
 G  c18     
 G  c19     
 G  c20     
 G  c21     
 G  c22     
 G  c23     
 G  c24     
 G  c25     
COLUMNS
    MARK0000  'MARKER'                 'INTORG'
    x1        obj1                            1
    x1        c4                            949
    x1        c13                           261
    x2        obj1                            1
    x2        c8                            489
    x2        c19                           674
    x2        c22                           699
    x3        obj1                            1
    x3        c15                           644
    x3        c17                           801
    x4        obj1                            1
    x4        c1                            284
    x4        c9                            902
    x5        obj1                            1
    x5        c12                           590
    x5        c19                           379
    x6        obj1                            1
    x6        c6                            417
    x6        c21                           306
    x7        obj1                            1
    x7        c2                            590
    x7        c10                           314
    x7        c12                           618
    x7        c17                           145
    x7        c19                           666
    x8        obj1                            1
    x8        c5                            951
    x8        c7                            636
    x8        c15                           429
    x9        obj1                            1
    x9        c1                            155
    x9        c15                           707
    x9        c16                           540
    x10       obj1                            1
    x10       c15                           468
    x10       c24                           732
    x11       obj1                            1
    x11       c2                            693
    x11       c10                           552
    x12       obj1                            1
    x12       c6                            274
    x12       c12                           965
    x12       c16                           199
    x12       c17                           711
    x12       c22                           395
    x13       obj1                            1
    x13       c19                           781
    x13       c20                           771
    x14       obj1                            1
    x14       c13                           878
    x15       obj1                            1
    x15       c2                            441
    x15       c3                            509
    x15       c4                            788
    x16       obj1                            1
    x16       c1                            670
    x16       c17                           797
    x16       c20                           313
    x16       c24                           705
    x17       obj1                            1
    x17       c3                            275
    x17       c16                           184
    x17       c19                           258
    x18       obj1                            1
    x18       c18                           185
    x18       c20                           983
    x18       c22                           810
    x19       obj1                            1
    x19       c3                            512
    x19       c6                            276
    x20       obj1                            1
    x20       c15                           390
    x21       obj1                            1
    x21       c25                           790
    x22       obj1                            1
    x22       c17                           463
    x23       obj1                            1
    x23       c2                            547
    x23       c10                           964
    x24       obj1                            1
    x25       obj1                            1
    x26       obj1                            1
    x26       c7                            273
    x26       c9                            831
    x26       c12                           911
    x26       c13                           772
    x27       obj1                            1
    x27       c1                            420
    x27       c8                            859
    x27       c14                           380
    x28       obj1                            1
    x28       c3                            512
    x28       c9                            895
    x28       c13                           334
    x29       obj1                            1
    x29       c10                           106
    x29       c11                           820
    x30       obj1                            1
    x30       c9                            870
    x31       obj1                            1
    x32       obj1                            1
    x32       c3                            220
    x32       c4                            163
    x32       c16                           169
    x32       c21                           867
    x33       obj1                            1
    x33       c13                           955
    x33       c14                           484
    x34       obj1                            1
    x34       c9                            906
    x34       c24                           266
    x35       obj1                            1
    x35       c4                            542
    x35       c11                           585
    x35       c14                           395
    x35       c17                           576
    x36       obj1                            1
    x36       c22                           728
    x36       c23                           990
    x37       obj1                            1
    x37       c16                           500
    x37       c24                           558
    x37       c25                           248
    x38       obj1                            1
    x38       c6                            238
    x38       c10                           300
    x38       c15                           950
    x38       c23                           259
    x39       obj1                            1
    x39       c16                           573
    x40       obj1                            1
    x40       c3                            960
    x40       c8                            735
    x41       obj1                            1
    x41       c3                            611
    x41       c13                           814
    x42       obj1                            1
    x42       c9                            116
    x42       c19                           897
    x42       c24                           466
    x43       obj1                            1
    x43       c4                            384
    x43       c6                            446
    x43       c20                           255
    x44       obj1                            1
    x44       c18                           439
    x44       c20                           564
    x44       c25                           155
    x45       obj1                            1
    x45       c11                           441
    x45       c18                           334
    x46       obj1                            1
    x46       c17                           150
    x46       c18                           852
    x46       c21                           881
    x47       obj1                            1
    x47       c10                           422
    x47       c16                           999
    x47       c24                           700
    x48       obj1                            1
    x48       c5                            267
    x48       c6                            693
    x48       c7                            234
    x48       c25                           212
    x49       obj1                            1
    x49       c4                            121
    x49       c9                            277
    x49       c13                           475
    x49       c14                           287
    x50       obj1                            1
    x50       c2                            465
    x50       c5                            422
    x50       c23                           667
    MARK0001  'MARKER'                 'INTEND'
RHS
    rhs       c1                            765
    rhs       c2                           1368
    rhs       c3                           1800
    rhs       c4                           1474
    rhs       c5                            820
    rhs       c6                           1172
    rhs       c7                            572
    rhs       c8                           1042
    rhs       c9                           2399
    rhs       c10                          1329
    rhs       c11                           923
    rhs       c12                          1542
    rhs       c13                          2245
    rhs       c14                           773
    rhs       c15                          1794
    rhs       c16                          1582
    rhs       c17                          1822
    rhs       c18                           905
    rhs       c19                          1828
    rhs       c20                          1443
    rhs       c21                          1027
    rhs       c22                          1316
    rhs       c23                           958
    rhs       c24                          1714
    rhs       c25                           703
BOUNDS
 LI bnd       x1        0
 LI bnd       x2        0
 LI bnd       x3        0
 LI bnd       x4        0
 LI bnd       x5        0
 LI bnd       x6        0
 LI bnd       x7        0
 LI bnd       x8        0
 LI bnd       x9        0
 LI bnd       x10       0
 LI bnd       x11       0
 LI bnd       x12       0
 LI bnd       x13       0
 LI bnd       x14       0
 LI bnd       x15       0
 LI bnd       x16       0
 LI bnd       x17       0
 LI bnd       x18       0
 LI bnd       x19       0
 LI bnd       x20       0
 LI bnd       x21       0
 LI bnd       x22       0
 LI bnd       x23       0
 LI bnd       x24       0
 LI bnd       x25       0
 LI bnd       x26       0
 LI bnd       x27       0
 LI bnd       x28       0
 LI bnd       x29       0
 LI bnd       x30       0
 LI bnd       x31       0
 LI bnd       x32       0
 LI bnd       x33       0
 LI bnd       x34       0
 LI bnd       x35       0
 LI bnd       x36       0
 LI bnd       x37       0
 LI bnd       x38       0
 LI bnd       x39       0
 LI bnd       x40       0
 LI bnd       x41       0
 LI bnd       x42       0
 LI bnd       x43       0
 LI bnd       x44       0
 LI bnd       x45       0
 LI bnd       x46       0
 LI bnd       x47       0
 LI bnd       x48       0
 LI bnd       x49       0
 LI bnd       x50       0
ENDATA
